Mg34 Al24
1.0
  10.4364659399999997    0.0000000000000000    0.0000000000000006
  -0.0000000000000006   10.4364659399999997    0.0000000000000006
   0.0000000000000000    0.0000000000000000   10.4364659399999997
Mg Al
34 24
direct
   0.0000000000000000    0.0000000000000000    0.0000000000000000 Mg
   0.6729867399999990    0.3270132600000000    0.3270132600000000 Mg
   0.3270132600000000    0.6729867400000000    0.3270132600000000 Mg
   0.3270132600000000    0.3270132600000000    0.6729867400000000 Mg
   0.1729867400000000    0.1729867399999990    0.1729867400000000 Mg
   0.1431546999999990    0.8568452999999990    0.5407479800000000 Mg
   0.9592520199999991    0.3568453000000000    0.3568453000000000 Mg
   0.1431546999999990    0.5407479800000000    0.8568452999999990 Mg
   0.8568452999999990    0.1431546999999990    0.5407479800000000 Mg
   0.5407479800000000    0.1431546999999990    0.8568452999999990 Mg
   0.3568453000000000    0.9592520199999991    0.3568453000000000 Mg
   0.3568453000000000    0.3568453000000000    0.9592520199999991 Mg
   0.5407479800000000    0.8568452999999990    0.1431546999999990 Mg
   0.8568452999999990    0.5407479800000000    0.1431546999999990 Mg
   0.1431546999999990    0.1431546999999990    0.4592520199999990 Mg
   0.4592520199999990    0.1431546999999990    0.1431546999999990 Mg
   0.1431546999999990    0.4592520199999990    0.1431546999999990 Mg
   0.5000000000000000    0.5000000000000000    0.5000000000000000 Mg
   0.1729867399999990    0.8270132600000000    0.8270132600000000 Mg
   0.8270132600000001    0.1729867400000000    0.8270132600000000 Mg
   0.8270132600000000    0.8270132600000001    0.1729867400000000 Mg
   0.6729867400000000    0.6729867399999990    0.6729867400000000 Mg
   0.6431546999999991    0.3568453000000000    0.0407479800000000 Mg
   0.4592520199999990    0.8568452999999990    0.8568452999999990 Mg
   0.6431546999999991    0.0407479800000000    0.3568453000000000 Mg
   0.3568453000000000    0.6431546999999991    0.0407479800000000 Mg
   0.0407479800000000    0.6431546999999991    0.3568453000000000 Mg
   0.8568452999999990    0.4592520199999990    0.8568452999999990 Mg
   0.8568452999999990    0.8568452999999990    0.4592520199999990 Mg
   0.0407479800000000    0.3568453000000000    0.6431546999999991 Mg
   0.3568453000000000    0.0407479800000000    0.6431546999999991 Mg
   0.6431546999999991    0.6431546999999991    0.9592520199999991 Mg
   0.9592520199999991    0.6431546999999991    0.6431546999999991 Mg
   0.6431546999999991    0.9592520199999991    0.6431546999999991 Mg
   0.9094854450000001    0.0905145550000000    0.2762320950000000 Al
   0.7237679049999991    0.0905145550000000    0.0905145550000000 Al
   0.9094854450000001    0.2762320950000000    0.0905145550000000 Al
   0.0905145550000000    0.9094854450000001    0.2762320950000000 Al
   0.2762320950000000    0.9094854450000001    0.0905145550000000 Al
   0.0905145550000000    0.7237679049999991    0.0905145550000000 Al
   0.0905145550000000    0.0905145550000000    0.7237679049999991 Al
   0.2762320950000000    0.0905145550000000    0.9094854450000001 Al
   0.0905145550000000    0.2762320950000000    0.9094854450000001 Al
   0.4094854449999990    0.4094854450000001    0.2237679049999990 Al
   0.2237679049999990    0.4094854449999990    0.4094854450000001 Al
   0.4094854450000001    0.2237679049999990    0.4094854449999990 Al
   0.4094854450000001    0.5905145550000001    0.7762320950000000 Al
   0.2237679049999990    0.5905145550000001    0.5905145550000001 Al
   0.4094854450000001    0.7762320950000000    0.5905145550000001 Al
   0.5905145550000001    0.4094854450000001    0.7762320950000000 Al
   0.7762320950000000    0.4094854450000001    0.5905145550000001 Al
   0.5905145550000001    0.2237679049999990    0.5905145550000001 Al
   0.5905145550000001    0.5905145550000001    0.2237679049999990 Al
   0.7762320950000000    0.5905145550000001    0.4094854450000001 Al
   0.5905145550000001    0.7762320950000000    0.4094854450000001 Al
   0.9094854450000001    0.9094854450000001    0.7237679049999991 Al
   0.7237679049999991    0.9094854450000001    0.9094854450000001 Al
   0.9094854450000001    0.7237679049999991    0.9094854450000001 Al
