Mg8 Ge4
1.0
   6.3685918396836820    0.0000000000000000    0.0000000000000004
   0.0000000000000010    6.3685918396836820    0.0000000000000004
   0.0000000000000000    0.0000000000000000    6.3685918396836820
Mg Ge
8 4
direct
   0.7500000000000000    0.7500000000000000    0.7500000000000000 Mg2+
   0.7500000000000000    0.2500000000000000    0.7500000000000000 Mg2+
   0.7500000000000000    0.2500000000000000    0.2500000000000000 Mg2+
   0.7500000000000000    0.7500000000000000    0.2500000000000000 Mg2+
   0.2500000000000000    0.7500000000000000    0.2500000000000000 Mg2+
   0.2500000000000000    0.2500000000000000    0.2500000000000000 Mg2+
   0.2500000000000000    0.2500000000000000    0.7500000000000000 Mg2+
   0.2500000000000000    0.7500000000000000    0.7500000000000000 Mg2+
   0.0000000000000000    0.0000000000000000    0.0000000000000000 Ge4-
   0.0000000000000000    0.5000000000000000    0.5000000000000000 Ge4-
   0.5000000000000000    0.0000000000000000    0.5000000000000000 Ge4-
   0.5000000000000000    0.5000000000000000    0.0000000000000000 Ge4-
