Mg8 Si4
1.0
   6.3651720000000003    0.0000000000000000    0.0000000000000004
  -0.0000000000000004    6.3651720000000003    0.0000000000000004
   0.0000000000000000    0.0000000000000000    6.3651720000000003
Mg Si
8 4
direct
   0.2500000000000000    0.7500000000000000    0.7500000000000000 Mg2+
   0.2500000000000000    0.2500000000000000    0.7500000000000000 Mg2+
   0.2500000000000000    0.2500000000000000    0.2500000000000000 Mg2+
   0.2500000000000000    0.7500000000000000    0.2500000000000000 Mg2+
   0.7500000000000000    0.7500000000000000    0.2500000000000000 Mg2+
   0.7500000000000000    0.2500000000000000    0.2500000000000000 Mg2+
   0.7500000000000000    0.2500000000000000    0.7500000000000000 Mg2+
   0.7500000000000000    0.7500000000000000    0.7500000000000000 Mg2+
   0.0000000000000000    0.0000000000000000    0.0000000000000000 Si4-
   0.0000000000000000    0.5000000000000000    0.5000000000000000 Si4-
   0.5000000000000000    0.0000000000000000    0.5000000000000000 Si4-
   0.5000000000000000    0.5000000000000000    0.0000000000000000 Si4-
