Ca34 Mg65 H1
1.0
  10.6467519999999993    0.0000000000000000    0.0000000000000000
   5.3233759999999997   10.8160500000000006   -0.5512600000000000
   0.0000000000000000    0.0000000000000000   44.2637819999999991
Ca Mg
34 65
direct
   0.9654660000000000    0.8876560000000000    0.2543470000000000 Ca
   0.2429940000000000    0.9992670000000000    0.2623190000000000 Ca
   0.4987990000000000    0.8209900000000000    0.3210140000000000 Ca
   0.0654660000000000    0.3543230000000000    0.2876810000000000 Ca
   0.7763270000000000    0.9326000000000000    0.3289860000000000 Ca
   0.6763270000000000    0.4659330000000000    0.2956530000000000 Ca
   0.0321330000000000    0.7543230000000000    0.3876810000000000 Ca
   0.5987990000000000    0.2876560000000000    0.3543470000000000 Ca
   0.3096610000000000    0.8659330000000000    0.3956530000000000 Ca
   0.2096610000000000    0.3992670000000000    0.3623190000000000 Ca
   0.5654660000000000    0.6876560000000000    0.4543470000000000 Ca
   0.1321330000000000    0.2209900000000000    0.4210140000000000 Ca
   0.8429940000000000    0.7992669999999999    0.4623190000000000 Ca
   0.7429940000000000    0.3326000000000000    0.4289860000000000 Ca
   0.0987990000000000    0.6209900000000000    0.5210140000000000 Ca
   0.6654660000000000    0.1543230000000000    0.4876810000000000 Ca
   0.3763270000000000    0.7326000000000000    0.5289860000000000 Ca
   0.2763270000000000    0.2659330000000000    0.4956530000000000 Ca
   0.6321329999999999    0.5543230000000000    0.5876810000000000 Ca
   0.1987990000000000    0.0876560000000000    0.5543470000000000 Ca
   0.9096610000000001    0.6659330000000000    0.5956530000000000 Ca
   0.8096610000000000    0.1992670000000000    0.5623190000000000 Ca
   0.1654660000000000    0.4876560000000000    0.6543470000000000 Ca
   0.7321330000000000    0.0209900000000000    0.6210140000000000 Ca
   0.4429940000000000    0.5992670000000000    0.6623190000000000 Ca
   0.3429940000000000    0.1326000000000000    0.6289860000000000 Ca
   0.6987989999999999    0.4209900000000000    0.7210140000000000 Ca
   0.2654660000000000    0.9543230000000000    0.6876810000000000 Ca
   0.9763269999999999    0.5326000000000000    0.7289860000000000 Ca
   0.8763270000000000    0.0659330000000000    0.6956530000000000 Ca
   0.2321330000000000    0.3543230000000000    0.7876810000000000 Ca
   0.7987990000000000    0.8876560000000000    0.7543470000000000 Ca
   0.5096610000000000    0.4659330000000000    0.7956530000000001 Ca
   0.4096610000000000    0.9992670000000000    0.7623190000000000 Ca
   0.6042300000000000    0.9434610000000000    0.2583330000000000 Mg
   0.4201030000000000    0.1430650000000000    0.3087300000000000 Mg
   0.8220860000000000    0.6763980000000001    0.2753970000000000 Mg
   0.0855800000000000    0.6434609999999999    0.3083330000000000 Mg
   0.6562130000000000    0.1767950000000000    0.2750000000000000 Mg
   0.3708970000000000    0.4101280000000000    0.2916670000000000 Mg
   0.1375630000000000    0.8767950000000000    0.3250000000000000 Mg
   0.3216900000000000    0.6771910000000000    0.2746030000000000 Mg
   0.9197070000000001    0.1438580000000000    0.3079370000000000 Mg
   0.9534370000000000    0.0763980000000000    0.3753970000000000 Mg
   0.3554200000000000    0.6097320000000001    0.3420630000000000 Mg
   0.6189140000000000    0.5767949999999999    0.3750000000000000 Mg
   0.1895460000000000    0.1101280000000000    0.3416670000000000 Mg
   0.9042300000000000    0.3434610000000000    0.3583330000000000 Mg
   0.6708970000000000    0.8101280000000000    0.3916670000000000 Mg
   0.8550230000000000    0.6105250000000000    0.3412700000000000 Mg
   0.4530400000000000    0.0771910000000000    0.3746030000000000 Mg
   0.4867700000000000    0.0097320000000000    0.4420630000000000 Mg
   0.8887530000000000    0.5430650000000000    0.4087300000000000 Mg
   0.1522470000000000    0.5101280000000000    0.4416670000000000 Mg
   0.7228790000000000    0.0434610000000000    0.4083330000000000 Mg
   0.4375630000000000    0.2767950000000000    0.4250000000000000 Mg
   0.2042300000000000    0.7434610000000000    0.4583330000000000 Mg
   0.3883560000000000    0.5438580000000000    0.4079370000000000 Mg
   0.9863740000000000    0.0105250000000000    0.4412700000000000 Mg
   0.0201030000000000    0.9430650000000000    0.5087300000000000 Mg
   0.4220860000000000    0.4763980000000000    0.4753970000000000 Mg
   0.6855800000000000    0.4434610000000000    0.5083330000000000 Mg
   0.2562130000000000    0.9767950000000000    0.4750000000000000 Mg
   0.9708970000000000    0.2101280000000000    0.4916670000000000 Mg
   0.7375630000000000    0.6767950000000000    0.5250000000000000 Mg
   0.9216900000000000    0.4771910000000000    0.4746030000000000 Mg
   0.5197070000000000    0.9438580000000000    0.5079370000000000 Mg
   0.5534370000000000    0.8763980000000000    0.5753970000000000 Mg
   0.9554200000000000    0.4097320000000000    0.5420630000000000 Mg
   0.2189140000000000    0.3767950000000000    0.5750000000000000 Mg
   0.7895460000000000    0.9101280000000000    0.5416670000000000 Mg
   0.5042300000000000    0.1434610000000000    0.5583330000000000 Mg
   0.2708970000000000    0.6101280000000000    0.5916670000000001 Mg
   0.4550230000000000    0.4105250000000000    0.5412700000000000 Mg
   0.0530400000000000    0.8771910000000001    0.5746030000000000 Mg
   0.0867700000000000    0.8097320000000000    0.6420630000000001 Mg
   0.4887530000000000    0.3430650000000000    0.6087300000000000 Mg
   0.7522470000000000    0.3101280000000000    0.6416670000000000 Mg
   0.3228790000000000    0.8434610000000000    0.6083330000000000 Mg
   0.0375630000000000    0.0767950000000000    0.6250000000000000 Mg
   0.8042300000000000    0.5434610000000000    0.6583329999999999 Mg
   0.9883560000000000    0.3438580000000000    0.6079369999999999 Mg
   0.5863740000000000    0.8105250000000001    0.6412700000000000 Mg
   0.6201030000000000    0.7430650000000000    0.7087300000000000 Mg
   0.0220860000000000    0.2763980000000000    0.6753970000000000 Mg
   0.2855800000000000    0.2434610000000000    0.7083330000000000 Mg
   0.8562130000000000    0.7767950000000000    0.6750000000000000 Mg
   0.5708970000000000    0.0101280000000000    0.6916670000000000 Mg
   0.3375630000000000    0.4767950000000000    0.7250000000000000 Mg
   0.5216900000000000    0.2771910000000000    0.6746030000000000 Mg
   0.1197070000000000    0.7438580000000000    0.7079370000000000 Mg
   0.1534370000000000    0.6763980000000001    0.7753970000000000 Mg
   0.5554200000000000    0.2097320000000000    0.7420630000000000 Mg
   0.8189140000000000    0.1767950000000000    0.7750000000000000 Mg
   0.3895460000000000    0.7101280000000000    0.7416670000000000 Mg
   0.1042300000000000    0.9434610000000000    0.7583330000000000 Mg
   0.8708970000000000    0.4101280000000000    0.7916670000000000 Mg
   0.0550230000000000    0.2105250000000000    0.7412700000000000 Mg
   0.6530400000000000    0.6771910000000000    0.7746030000000000 Mg