Ce4 Mg56
1.0
7.901824 0.000000 0.151070
1.070826 7.828930 0.151070
0.000000 0.000000 40.663961
Ce Mg
4 56
Selective dynamics
direct
0.214443 0.214443 0.711538 T T T
0.464444 0.464444 0.586538 F F F
0.714444 0.714444 0.461538 F F F
0.964444 0.964443 0.336538 T T T
0.304992 0.873895 0.774038 T T T
0.873895 0.304992 0.774038 T T T
0.927782 0.927782 0.747095 T T T
0.251105 0.251105 0.800982 T T T
0.865180 0.563706 0.711538 T T T
0.563706 0.865181 0.711538 T T T
0.476391 0.476391 0.755196 T T T
0.702496 0.702496 0.792881 T T T
0.714444 0.214443 0.711538 T T T
0.589443 0.089443 0.774038 T T T
0.089444 0.589444 0.774038 T T T
0.214444 0.714444 0.711538 T T T
0.554991 0.123895 0.649038 F F F
0.123895 0.554992 0.649038 F F F
0.177782 0.177782 0.622095 F F F
0.501105 0.501105 0.675982 F F F
0.115181 0.813706 0.586538 F F F
0.813706 0.115181 0.586538 F F F
0.726391 0.726391 0.630196 F F F
0.952496 0.952496 0.667881 F F F
0.964444 0.464444 0.586538 F F F
0.839444 0.339443 0.649038 F F F
0.339444 0.839444 0.649038 F F F
0.464444 0.964444 0.586538 F F F
0.804992 0.373895 0.524038 F F F
0.373895 0.804991 0.524038 F F F
0.427782 0.427782 0.497095 F F F
0.751104 0.751104 0.550982 F F F
0.365180 0.063706 0.461538 F F F
0.063706 0.365181 0.461538 F F F
0.976391 0.976391 0.505196 F F F
0.202496 0.202496 0.542881 F F F
0.214444 0.714444 0.461538 F F F
0.089444 0.589444 0.524038 F F F
0.589443 0.089444 0.524038 F F F
0.714444 0.214443 0.461538 F F F
0.054992 0.623895 0.399038 F F F
0.623895 0.054992 0.399038 F F F
0.677782 0.677782 0.372095 F F F
0.001104 0.001104 0.425982 F F F
0.615180 0.313706 0.336538 T T T
0.313706 0.615181 0.336538 T T T
0.226391 0.226391 0.380196 F F F
0.452496 0.452496 0.417881 F F F
0.464444 0.964444 0.336538 T T T
0.339444 0.839444 0.399038 F F F
0.839444 0.339443 0.399038 F F F
0.964444 0.464444 0.336538 T T T
0.304991 0.873895 0.274038 T T T
0.873895 0.304992 0.274038 T T T
0.927782 0.927782 0.247095 T T T
0.251105 0.251105 0.300982 T T T
0.476391 0.476391 0.255196 T T T
0.702496 0.702496 0.292881 T T T
0.589443 0.089443 0.274038 T T T
0.089444 0.589444 0.274038 T T T
