La10 Mg116
1.0
10.364130 0.000000 0.000000
-0.000000 10.364130 0.000000
0.000000 0.000000 47.488848
La Mg
10 116
Selective dynamics
direct
0.000000 0.000000 0.290865 T T T
0.500000 0.500000 0.228365 T T T
0.000000 0.000000 0.415865 F F F
0.500000 0.500000 0.353365 F F F
0.000000 0.000000 0.540865 F F F
0.500000 0.500000 0.478365 F F F
0.000000 0.000000 0.665865 F F F
0.500000 0.500000 0.603365 F F F
0.000000 0.000000 0.790865 T T T
0.500000 0.500000 0.728365 T T T
0.750000 0.750000 0.259615 T T T
0.750000 0.250000 0.259615 T T T
0.500000 0.852625 0.228365 T T T
0.500000 0.147375 0.228365 T T T
0.647375 0.000000 0.290865 T T T
0.352625 0.000000 0.290865 T T T
0.500000 0.281946 0.290865 T T T
0.500000 0.718054 0.290865 T T T
0.218054 0.000000 0.228365 T T T
0.781946 0.000000 0.228365 T T T
0.250000 0.250000 0.259615 T T T
0.250000 0.750000 0.259615 T T T
0.000000 0.352625 0.290865 T T T
0.000000 0.647375 0.290865 T T T
0.147375 0.500000 0.228365 T T T
0.852625 0.500000 0.228365 T T T
0.000000 0.781946 0.228365 T T T
0.000000 0.218054 0.228365 T T T
0.718054 0.500000 0.290865 T T T
0.281946 0.500000 0.290865 T T T
0.750000 0.750000 0.322115 T T T
0.750000 0.750000 0.384615 F F F
0.750000 0.250000 0.384615 F F F
0.750000 0.250000 0.322115 T T T
0.500000 0.852625 0.353365 F F F
0.500000 0.147375 0.353365 F F F
0.647375 0.000000 0.415865 F F F
0.352625 0.000000 0.415865 F F F
0.500000 0.281946 0.415865 F F F
0.500000 0.718054 0.415865 F F F
0.218054 0.000000 0.353365 F F F
0.781946 0.000000 0.353365 F F F
0.250000 0.250000 0.384615 F F F
0.250000 0.250000 0.322115 T T T
0.250000 0.750000 0.322115 T T T
0.250000 0.750000 0.384615 F F F
0.000000 0.352625 0.415865 F F F
0.000000 0.647375 0.415865 F F F
0.147375 0.500000 0.353365 F F F
0.852625 0.500000 0.353365 F F F
0.000000 0.781946 0.353365 F F F
0.000000 0.218054 0.353365 F F F
0.718054 0.500000 0.415865 F F F
0.281946 0.500000 0.415865 F F F
0.750000 0.750000 0.447115 F F F
0.750000 0.750000 0.509615 F F F
0.750000 0.250000 0.509615 F F F
0.750000 0.250000 0.447115 F F F
0.500000 0.852625 0.478365 F F F
0.500000 0.147375 0.478365 F F F
0.647375 0.000000 0.540865 F F F
0.352625 0.000000 0.540865 F F F
0.500000 0.281946 0.540865 F F F
0.500000 0.718054 0.540865 F F F
0.218054 0.000000 0.478365 F F F
0.781946 0.000000 0.478365 F F F
0.250000 0.250000 0.509615 F F F
0.250000 0.250000 0.447115 F F F
0.250000 0.750000 0.447115 F F F
0.250000 0.750000 0.509615 F F F
0.000000 0.352625 0.540865 F F F
0.000000 0.647375 0.540865 F F F
0.147375 0.500000 0.478365 F F F
0.852625 0.500000 0.478365 F F F
0.000000 0.781946 0.478365 F F F
0.000000 0.218054 0.478365 F F F
0.718054 0.500000 0.540865 F F F
0.281946 0.500000 0.540865 F F F
0.750000 0.750000 0.572115 F F F
0.750000 0.750000 0.634615 F F F
0.750000 0.250000 0.634615 F F F
0.750000 0.250000 0.572115 F F F
0.500000 0.852625 0.603365 F F F
0.500000 0.147375 0.603365 F F F
0.647375 0.000000 0.665865 F F F
0.352625 0.000000 0.665865 F F F
0.500000 0.281946 0.665865 F F F
0.500000 0.718054 0.665865 F F F
0.218054 0.000000 0.603365 F F F
0.781946 0.000000 0.603365 F F F
0.250000 0.250000 0.634615 F F F
0.250000 0.250000 0.572115 F F F
0.250000 0.750000 0.572115 F F F
0.250000 0.750000 0.634615 F F F
0.000000 0.352625 0.665865 F F F
0.000000 0.647375 0.665865 F F F
0.147375 0.500000 0.603365 F F F
0.852625 0.500000 0.603365 F F F
0.000000 0.781946 0.603365 F F F
0.000000 0.218054 0.603365 F F F
0.718054 0.500000 0.665865 F F F
0.281946 0.500000 0.665865 F F F
0.750000 0.750000 0.697115 T T T
0.750000 0.750000 0.759615 T T T
0.750000 0.250000 0.759615 T T T
0.750000 0.250000 0.697115 T T T
0.500000 0.852625 0.728365 T T T
0.500000 0.147375 0.728365 T T T
0.647375 0.000000 0.790865 T T T
0.352625 0.000000 0.790865 T T T
0.500000 0.281946 0.790865 T T T
0.500000 0.718054 0.790865 T T T
0.218054 0.000000 0.728365 T T T
0.781946 0.000000 0.728365 T T T
0.250000 0.250000 0.759615 T T T
0.250000 0.250000 0.697115 T T T
0.250000 0.750000 0.697115 T T T
0.250000 0.750000 0.759615 T T T
0.000000 0.352625 0.790865 T T T
0.000000 0.647375 0.790865 T T T
0.147375 0.500000 0.728365 T T T
0.852625 0.500000 0.728365 T T T
0.000000 0.781946 0.728365 T T T
0.000000 0.218054 0.728365 T T T
0.718054 0.500000 0.790865 T T T
0.281946 0.500000 0.790865 T T T
