Mg170 Al120
1.0
14.725085 0.000000 -2.245554
7.533765 12.849632 0.000000
0.000000 0.000000 49.402198
Mg Al
170 120
Selective dynamics
direct
0.776986 0.665479 0.296336 F F F
0.272911 0.245417 0.212324 T T T
0.617110 0.245417 0.212324 T T T
0.272911 0.589616 0.212324 T T T
0.070011 0.018966 0.235874 T T T
0.748554 0.378196 0.238880 T T T
0.215400 0.144773 0.255457 T T T
0.432246 0.694504 0.238880 T T T
0.035244 0.378196 0.238880 T T T
0.035244 0.694504 0.238880 T T T
0.818398 0.144773 0.255457 T T T
0.215400 0.747771 0.255457 T T T
0.748554 0.981194 0.238880 T T T
0.432246 0.981194 0.238880 T T T
0.983745 0.220253 0.264629 T T T
0.983745 0.903945 0.264629 T T T
0.300053 0.903945 0.264629 T T T
0.401986 0.352979 0.233836 T T T
0.647911 0.557917 0.274824 T T T
0.992110 0.557917 0.274824 T T T
0.647911 0.902116 0.274824 T T T
0.445011 0.331466 0.298374 F F F
0.123554 0.690696 0.301380 F F F
0.840400 0.832273 0.192957 T T T
0.807246 0.007004 0.301380 F F F
0.410244 0.690696 0.301380 F F F
0.410244 0.007004 0.301380 F F F
0.443398 0.832273 0.192957 T T T
0.840400 0.435271 0.192957 T T T
0.123554 0.293694 0.301380 F F F
0.807246 0.293694 0.301380 F F F
0.608745 0.907753 0.202129 T T T
0.608745 0.591445 0.202129 T T T
0.925053 0.591445 0.202129 T T T
0.526986 0.290479 0.421336 F F F
0.022911 0.870417 0.337324 F F F
0.367110 0.870417 0.337324 F F F
0.022911 0.214616 0.337324 F F F
0.820011 0.643966 0.360874 F F F
0.498554 0.003196 0.363880 F F F
0.965400 0.769773 0.380457 F F F
0.182246 0.319504 0.363880 F F F
0.785244 0.003196 0.363880 F F F
0.785244 0.319504 0.363880 F F F
0.568398 0.769773 0.380457 F F F
0.965400 0.372771 0.380457 F F F
0.498554 0.606194 0.363880 F F F
0.182246 0.606194 0.363880 F F F
0.733745 0.845253 0.389629 F F F
0.733745 0.528945 0.389629 F F F
0.050053 0.528945 0.389629 F F F
0.151986 0.977979 0.358836 F F F
0.397911 0.182917 0.399824 F F F
0.742110 0.182917 0.399824 F F F
0.397911 0.527116 0.399824 F F F
0.195011 0.956466 0.423374 F F F
0.873554 0.315696 0.426380 F F F
0.590400 0.457273 0.317957 F F F
0.557246 0.632004 0.426380 F F F
0.160244 0.315696 0.426380 F F F
0.160244 0.632004 0.426380 F F F
0.193398 0.457273 0.317957 F F F
0.590400 0.060271 0.317957 F F F
0.873554 0.918694 0.426380 F F F
0.557246 0.918694 0.426380 F F F
0.358745 0.532753 0.327129 F F F
0.358745 0.216445 0.327129 F F F
0.675053 0.216445 0.327129 F F F
0.276986 0.915479 0.546336 F F F
0.772911 0.495417 0.462324 F F F
0.117110 0.495417 0.462324 F F F
0.772911 0.839616 0.462324 F F F
0.570011 0.268966 0.485874 F F F
0.248554 0.628196 0.488880 F F F
0.715400 0.394773 0.505457 F F F
0.932246 0.944504 0.488880 F F F
0.535244 0.628196 0.488880 F F F
0.535244 0.944504 0.488880 F F F
0.318398 0.394773 0.505457 F F F
0.715400 0.997771 0.505457 F F F
0.248554 0.231194 0.488880 F F F
0.932246 0.231194 0.488880 F F F
0.483745 0.470253 0.514629 F F F
0.483745 0.153945 0.514629 F F F
0.800053 0.153945 0.514629 F F F
0.901986 0.602979 0.483836 F F F
0.147911 0.807917 0.524824 F F F
0.492110 0.807917 0.524824 F F F
0.147911 0.152116 0.524824 F F F
0.945011 0.581466 0.548374 F F F
0.623554 0.940696 0.551380 F F F
0.340400 0.082273 0.442957 F F F
0.307246 0.257004 0.551380 F F F
0.910244 0.940696 0.551380 F F F
0.910244 0.257004 0.551380 F F F
0.943398 0.082273 0.442957 F F F
0.340400 0.685271 0.442957 F F F
0.623554 0.543694 0.551380 F F F
0.307246 0.543694 0.551380 F F F
0.108745 0.157753 0.452129 F F F
0.108745 0.841445 0.452129 F F F
0.425053 0.841445 0.452129 F F F
0.026986 0.540479 0.671336 F F F
0.522911 0.120417 0.587324 F F F
0.867110 0.120417 0.587324 F F F
0.522911 0.464616 0.587324 F F F
0.320011 0.893966 0.610874 F F F
0.998554 0.253196 0.613880 F F F
0.465400 0.019773 0.630457 F F F
0.682246 0.569504 0.613880 F F F
0.285244 0.253196 0.613880 F F F
0.285244 0.569504 0.613880 F F F
0.068398 0.019773 0.630457 F F F
0.465400 0.622771 0.630457 F F F
0.998554 0.856194 0.613880 F F F
0.682246 0.856194 0.613880 F F F
0.233745 0.095253 0.639629 F F F
0.233745 0.778945 0.639629 F F F
0.550053 0.778945 0.639629 F F F
0.651986 0.227979 0.608836 F F F
0.897911 0.432917 0.649824 F F F
0.242110 0.432917 0.649824 F F F
0.897911 0.777116 0.649824 F F F
0.695011 0.206466 0.673374 F F F
0.373554 0.565696 0.676380 F F F
0.090400 0.707273 0.567957 F F F
0.057246 0.882004 0.676380 F F F
0.660244 0.565696 0.676380 F F F
0.660244 0.882004 0.676380 F F F
0.693398 0.707273 0.567957 F F F
0.090400 0.310271 0.567957 F F F
0.373554 0.168694 0.676380 F F F
0.057246 0.168694 0.676380 F F F
0.858745 0.782753 0.577129 F F F
0.858745 0.466445 0.577129 F F F
0.175053 0.466445 0.577129 F F F
0.776986 0.165479 0.796336 T T T
0.272911 0.745417 0.712324 T T T
0.617110 0.745417 0.712324 T T T
0.272911 0.089616 0.712324 T T T
0.070011 0.518966 0.735874 T T T
0.748554 0.878196 0.738880 T T T
0.215400 0.644773 0.755457 T T T
0.432246 0.194504 0.738880 T T T
0.035244 0.878196 0.738880 T T T
0.035244 0.194504 0.738880 T T T
0.818398 0.644773 0.755457 T T T
0.215400 0.247771 0.755457 T T T
0.748554 0.481194 0.738880 T T T
0.432246 0.481194 0.738880 T T T
0.983745 0.720253 0.764629 T T T
0.983745 0.403945 0.764629 T T T
0.300053 0.403945 0.764629 T T T
0.401986 0.852979 0.733836 T T T
0.647911 0.057917 0.774824 T T T
0.992110 0.057917 0.774824 T T T
0.647911 0.402116 0.774824 T T T
0.445011 0.831466 0.798374 T T T
0.123554 0.190696 0.801380 T T T
0.840400 0.332273 0.692957 F F F
0.807246 0.507004 0.801380 T T T
0.410244 0.190696 0.801380 T T T
0.410244 0.507004 0.801380 T T T
0.443398 0.332273 0.692957 F F F
0.840400 0.935271 0.692957 F F F
0.123554 0.793694 0.801380 T T T
0.807246 0.793694 0.801380 T T T
0.608745 0.407753 0.702129 T T T
0.608745 0.091445 0.702129 T T T
0.925053 0.091445 0.702129 T T T
0.048664 0.212862 0.205813 T T T
0.891255 0.791567 0.284517 T T T
0.233846 0.027680 0.205813 T T T
0.867401 0.212862 0.205813 T T T
0.867401 0.027680 0.205813 T T T
0.524810 0.791567 0.284517 T T T
0.891255 0.425122 0.284517 T T T
0.048664 0.846417 0.205813 T T T
0.233846 0.846417 0.205813 T T T
0.175623 0.873569 0.301702 F F F
0.175623 0.058751 0.301702 F F F
0.990441 0.058751 0.301702 F F F
0.423664 0.525362 0.268313 T T T
0.516255 0.479067 0.222017 T T T
0.608846 0.340180 0.268313 T T T
0.242401 0.525362 0.268313 T T T
0.242401 0.340180 0.268313 T T T
0.149810 0.479067 0.222017 T T T
0.516255 0.112622 0.222017 T T T
0.423664 0.158917 0.268313 T T T
0.608846 0.158917 0.268313 T T T
0.800623 0.561069 0.239202 T T T
0.800623 0.746251 0.239202 T T T
0.615441 0.746251 0.239202 T T T
0.798664 0.837862 0.330813 F F F
0.641255 0.416567 0.409517 F F F
0.983846 0.652680 0.330813 F F F
0.617401 0.837862 0.330813 F F F
0.617401 0.652680 0.330813 F F F
0.274810 0.416567 0.409517 F F F
0.641255 0.050122 0.409517 F F F
0.798664 0.471417 0.330813 F F F
0.983846 0.471417 0.330813 F F F
0.925623 0.498569 0.426702 F F F
0.925623 0.683751 0.426702 F F F
0.740441 0.683751 0.426702 F F F
0.173664 0.150362 0.393313 F F F
0.266255 0.104067 0.347017 F F F
0.358846 0.965180 0.393313 F F F
0.992401 0.150362 0.393313 F F F
0.992401 0.965180 0.393313 F F F
0.899810 0.104067 0.347017 F F F
0.266255 0.737622 0.347017 F F F
0.173664 0.783917 0.393313 F F F
0.358846 0.783917 0.393313 F F F
0.550623 0.186069 0.364202 F F F
0.550623 0.371251 0.364202 F F F
0.365441 0.371251 0.364202 F F F
0.548664 0.462862 0.455813 F F F
0.391255 0.041567 0.534517 F F F
0.733846 0.277680 0.455813 F F F
0.367401 0.462862 0.455813 F F F
0.367401 0.277680 0.455813 F F F
0.024810 0.041567 0.534517 F F F
0.391255 0.675122 0.534517 F F F
0.548664 0.096417 0.455813 F F F
0.733846 0.096417 0.455813 F F F
0.675623 0.123569 0.551702 F F F
0.675623 0.308751 0.551702 F F F
0.490441 0.308751 0.551702 F F F
0.923664 0.775362 0.518313 F F F
0.016255 0.729067 0.472017 F F F
0.108846 0.590180 0.518313 F F F
0.742401 0.775362 0.518313 F F F
0.742401 0.590180 0.518313 F F F
0.649810 0.729067 0.472017 F F F
0.016255 0.362622 0.472017 F F F
0.923664 0.408917 0.518313 F F F
0.108846 0.408917 0.518313 F F F
0.300623 0.811069 0.489202 F F F
0.300623 0.996251 0.489202 F F F
0.115441 0.996251 0.489202 F F F
0.298664 0.087862 0.580813 F F F
0.141255 0.666567 0.659517 F F F
0.483846 0.902680 0.580813 F F F
0.117401 0.087862 0.580813 F F F
0.117401 0.902680 0.580813 F F F
0.774810 0.666567 0.659517 F F F
0.141255 0.300122 0.659517 F F F
0.298664 0.721417 0.580813 F F F
0.483846 0.721417 0.580813 F F F
0.425623 0.748569 0.676702 F F F
0.425623 0.933751 0.676702 F F F
0.240441 0.933751 0.676702 F F F
0.673664 0.400362 0.643313 F F F
0.766255 0.354067 0.597017 F F F
0.858846 0.215180 0.643313 F F F
0.492401 0.400362 0.643313 F F F
0.492401 0.215180 0.643313 F F F
0.399810 0.354067 0.597017 F F F
0.766255 0.987622 0.597017 F F F
0.673664 0.033917 0.643313 F F F
0.858846 0.033917 0.643313 F F F
0.050623 0.436069 0.614202 F F F
0.050623 0.621251 0.614202 F F F
0.865441 0.621251 0.614202 F F F
0.048664 0.712862 0.705813 T T T
0.891255 0.291567 0.784517 T T T
0.233846 0.527680 0.705813 T T T
0.867401 0.712862 0.705813 T T T
0.867401 0.527680 0.705813 T T T
0.524810 0.291567 0.784517 T T T
0.891255 0.925122 0.784517 T T T
0.048664 0.346417 0.705813 T T T
0.233846 0.346417 0.705813 T T T
0.175623 0.373569 0.801702 T T T
0.175623 0.558751 0.801702 T T T
0.990441 0.558751 0.801702 T T T
0.423664 0.025362 0.768313 T T T
0.516255 0.979067 0.722017 T T T
0.608846 0.840180 0.768313 T T T
0.242401 0.025362 0.768313 T T T
0.242401 0.840180 0.768313 T T T
0.149810 0.979067 0.722017 T T T
0.516255 0.612622 0.722017 T T T
0.423664 0.658917 0.768313 T T T
0.608846 0.658917 0.768313 T T T
0.800623 0.061069 0.739202 T T T
0.800623 0.246251 0.739202 T T T
0.615441 0.246251 0.739202 T T T
