Mg32 Al42
1.0
6.444701 0.000000 0.000000
-0.000000 6.444701 0.000000
0.000000 0.000000 57.646614
Mg Al
32 42
Selective dynamics
direct
0.000000 0.223973 0.247791 T T T
0.000000 0.776027 0.247791 T T T
0.276027 0.000000 0.497791 F F F
0.500000 0.223973 0.302209 T T T
0.500000 0.776027 0.302209 T T T
0.723973 0.000000 0.497791 F F F
0.723973 0.500000 0.218876 T T T
0.276027 0.500000 0.218876 T T T
0.500000 0.723973 0.414457 F F F
0.500000 0.276027 0.414457 F F F
0.776027 0.500000 0.331124 F F F
1.000000 0.723973 0.468876 F F F
0.000000 0.276027 0.468876 F F F
0.223973 0.500000 0.331124 F F F
0.223973 0.000000 0.385543 F F F
0.776027 0.000000 0.385543 F F F
0.000000 0.223973 0.581124 F F F
0.000000 0.776027 0.581124 F F F
0.276027 0.000000 0.831124 T T T
0.500000 0.223973 0.635543 F F F
0.500000 0.776027 0.635543 F F F
0.723973 0.000000 0.831124 T T T
0.723973 0.500000 0.552209 F F F
0.276027 0.500000 0.552209 F F F
0.500000 0.723973 0.747791 T T T
0.500000 0.276027 0.747791 T T T
0.776027 0.500000 0.664457 F F F
1.000000 0.723973 0.802209 T T T
0.000000 0.276027 0.802209 T T T
0.223973 0.500000 0.664457 F F F
0.223973 0.000000 0.718876 F F F
0.776027 0.000000 0.718876 F F F
0.500000 0.787525 0.251062 T T T
0.500000 0.212475 0.251062 T T T
1.000000 0.787525 0.298938 T T T
1.000000 0.212475 0.298938 T T T
0.750000 0.500000 0.275000 T T T
0.250000 0.500000 0.275000 T T T
0.000000 0.287525 0.417729 F F F
1.000000 0.712475 0.417729 F F F
0.212475 0.000000 0.334396 F F F
0.500000 0.287525 0.465604 F F F
0.500000 0.712475 0.465604 F F F
0.787525 0.000000 0.334396 F F F
0.787525 0.500000 0.382271 F F F
0.212475 0.500000 0.382271 F F F
0.500000 0.750000 0.358333 F F F
0.500000 0.250000 0.358333 F F F
0.250000 0.000000 0.441667 F F F
0.750000 0.000000 0.441667 F F F
0.500000 0.787525 0.584396 F F F
0.500000 0.212475 0.584396 F F F
0.712475 0.500000 0.501062 F F F
1.000000 0.787525 0.632271 F F F
1.000000 0.212475 0.632271 F F F
0.287525 0.500000 0.501062 F F F
0.287525 0.000000 0.548938 F F F
0.712475 0.000000 0.548938 F F F
0.000000 0.250000 0.525000 F F F
1.000000 0.750000 0.525000 F F F
0.750000 0.500000 0.608333 F F F
0.250000 0.500000 0.608333 F F F
0.000000 0.287525 0.751062 T T T
1.000000 0.712475 0.751062 T T T
0.212475 0.000000 0.667729 F F F
0.500000 0.287525 0.798938 T T T
0.500000 0.712475 0.798938 T T T
0.787525 0.000000 0.667729 F F F
0.787525 0.500000 0.715604 F F F
0.212475 0.500000 0.715604 F F F
0.500000 0.750000 0.691667 F F F
0.500000 0.250000 0.691667 F F F
0.250000 0.000000 0.775000 T T T
0.750000 0.000000 0.775000 T T T
