Mg48 Si24 H1
1.0
   8.9991599999999998    0.0000000000000000    0.0000000000000000
   0.0000000000000000    6.3633670000000002    0.0000000000000000
   0.0000000000000000    0.0000000000000000   44.9957959999999986
Mg Si
48 24
direct
   0.1250000000000000    0.2500000000000000    0.2750000000000000 Mg
   0.6250000000000000    0.2500000000000000    0.2750000000000000 Mg
   0.3750000000000000    0.2500000000000000    0.2250000000000000 Mg
   0.8750000000000000    0.2500000000000000    0.2250000000000000 Mg
   0.3750000000000000    0.7500000000000000    0.2250000000000000 Mg
   0.8750000000000000    0.7500000000000000    0.2250000000000000 Mg
   0.1250000000000000    0.7500000000000000    0.2750000000000000 Mg
   0.6250000000000000    0.7500000000000000    0.2750000000000000 Mg
   0.1250000000000000    0.2500000000000000    0.3750000000000000 Mg
   0.6250000000000000    0.2500000000000000    0.3750000000000000 Mg
   0.3750000000000000    0.2500000000000000    0.3250000000000000 Mg
   0.8750000000000000    0.2500000000000000    0.3250000000000000 Mg
   0.3750000000000000    0.7500000000000000    0.3250000000000000 Mg
   0.8750000000000000    0.7500000000000000    0.3250000000000000 Mg
   0.1250000000000000    0.7500000000000000    0.3750000000000000 Mg
   0.6250000000000000    0.7500000000000000    0.3750000000000000 Mg
   0.1250000000000000    0.2500000000000000    0.4750000000000000 Mg
   0.6250000000000000    0.2500000000000000    0.4750000000000000 Mg
   0.3750000000000000    0.2500000000000000    0.4250000000000000 Mg
   0.8750000000000000    0.2500000000000000    0.4250000000000000 Mg
   0.3750000000000000    0.7500000000000000    0.4250000000000000 Mg
   0.8750000000000000    0.7500000000000000    0.4250000000000000 Mg
   0.1250000000000000    0.7500000000000000    0.4750000000000000 Mg
   0.6250000000000000    0.7500000000000000    0.4750000000000000 Mg
   0.1250000000000000    0.2500000000000000    0.5750000000000000 Mg
   0.6250000000000000    0.2500000000000000    0.5750000000000000 Mg
   0.3750000000000000    0.2500000000000000    0.5250000000000000 Mg
   0.8750000000000000    0.2500000000000000    0.5250000000000000 Mg
   0.3750000000000000    0.7500000000000000    0.5250000000000000 Mg
   0.8750000000000000    0.7500000000000000    0.5250000000000000 Mg
   0.1250000000000000    0.7500000000000000    0.5750000000000000 Mg
   0.6250000000000000    0.7500000000000000    0.5750000000000000 Mg
   0.1250000000000000    0.2500000000000000    0.6750000000000000 Mg
   0.6250000000000000    0.2500000000000000    0.6750000000000000 Mg
   0.3750000000000000    0.2500000000000000    0.6250000000000000 Mg
   0.8750000000000000    0.2500000000000000    0.6250000000000000 Mg
   0.3750000000000000    0.7500000000000000    0.6250000000000000 Mg
   0.8750000000000000    0.7500000000000000    0.6250000000000000 Mg
   0.1250000000000000    0.7500000000000000    0.6750000000000000 Mg
   0.6250000000000000    0.7500000000000000    0.6750000000000000 Mg
   0.1250000000000000    0.2500000000000000    0.7750000000000000 Mg
   0.6250000000000000    0.2500000000000000    0.7750000000000000 Mg
   0.3750000000000000    0.2500000000000000    0.7250000000000000 Mg
   0.8750000000000000    0.2500000000000000    0.7250000000000000 Mg
   0.3750000000000000    0.7500000000000000    0.7250000000000000 Mg
   0.8750000000000000    0.7500000000000000    0.7250000000000000 Mg
   0.1250000000000000    0.7500000000000000    0.7750000000000000 Mg
   0.6250000000000000    0.7500000000000000    0.7750000000000000 Mg
   0.3750000000000000    0.0000000000000000    0.2750000000000000 Si
   0.8750000000000000    0.0000000000000000    0.2750000000000000 Si
   0.1250000000000000    0.5000000000000000    0.2250000000000000 Si
   0.6250000000000000    0.5000000000000000    0.2250000000000000 Si
   0.3750000000000000    0.0000000000000000    0.3750000000000000 Si
   0.8750000000000000    0.0000000000000000    0.3750000000000000 Si
   0.1250000000000000    0.5000000000000000    0.3250000000000000 Si
   0.6250000000000000    0.5000000000000000    0.3250000000000000 Si
   0.3750000000000000    0.0000000000000000    0.4750000000000000 Si
   0.8750000000000000    0.0000000000000000    0.4750000000000000 Si
   0.1250000000000000    0.5000000000000000    0.4250000000000000 Si
   0.6250000000000000    0.5000000000000000    0.4250000000000000 Si
   0.3750000000000000    0.0000000000000000    0.5750000000000000 Si
   0.8750000000000000    0.0000000000000000    0.5750000000000000 Si
   0.1250000000000000    0.5000000000000000    0.5250000000000000 Si
   0.6250000000000000    0.5000000000000000    0.5250000000000000 Si
   0.3750000000000000    0.0000000000000000    0.6750000000000000 Si
   0.8750000000000000    0.0000000000000000    0.6750000000000000 Si
   0.1250000000000000    0.5000000000000000    0.6250000000000000 Si
   0.6250000000000000    0.5000000000000000    0.6250000000000000 Si
   0.3750000000000000    0.0000000000000000    0.7750000000000000 Si
   0.8750000000000000    0.0000000000000000    0.7750000000000000 Si
   0.1250000000000000    0.5000000000000000    0.7250000000000000 Si
   0.6250000000000000    0.5000000000000000    0.7250000000000000 Si