Mg48 Zn84 H1
1.0
  10.4303539999999995    0.0000000000000000    0.6383280000000000
   5.1956439999999997    9.0442000000000000    0.6383280000000000
   0.0000000000000000    0.0000000000000000   42.7679270000000002
Mg Zn
48 84
direct
   0.1562500000000000    0.4500000000000000    0.2625000000000000 Mg
   0.1562500000000000    0.9500000000000000    0.2625000000000000 Mg
   0.6562500000000000    0.4500000000000000    0.2625000000000000 Mg
   0.6562500000000000    0.9500000000000000    0.2625000000000000 Mg
   0.3187500000000000    0.1125000000000000    0.2875000000000000 Mg
   0.3187500000000000    0.6125000000000000    0.2875000000000000 Mg
   0.8187500000000000    0.1125000000000000    0.2875000000000000 Mg
   0.8187500000000000    0.6125000000000000    0.2875000000000000 Mg
   0.3062500000000000    0.1000000000000000    0.3625000000000000 Mg
   0.3062500000000000    0.6000000000000000    0.3625000000000000 Mg
   0.8062500000000000    0.1000000000000000    0.3625000000000000 Mg
   0.8062500000000000    0.6000000000000000    0.3625000000000000 Mg
   0.4687500000000000    0.2625000000000000    0.3875000000000000 Mg
   0.4687500000000000    0.7625000000000000    0.3875000000000000 Mg
   0.9687500000000000    0.2625000000000000    0.3875000000000000 Mg
   0.9687500000000000    0.7625000000000000    0.3875000000000000 Mg
   0.4562500000000000    0.2500000000000000    0.4625000000000000 Mg
   0.4562500000000000    0.7500000000000000    0.4625000000000000 Mg
   0.9562500000000000    0.2500000000000000    0.4625000000000000 Mg
   0.9562500000000000    0.7500000000000000    0.4625000000000000 Mg
   0.1187500000000000    0.4125000000000000    0.4875000000000000 Mg
   0.1187500000000000    0.9125000000000000    0.4875000000000000 Mg
   0.6187500000000000    0.4125000000000000    0.4875000000000000 Mg
   0.6187500000000000    0.9125000000000000    0.4875000000000000 Mg
   0.1062500000000000    0.4000000000000000    0.5625000000000000 Mg
   0.1062500000000000    0.9000000000000000    0.5625000000000000 Mg
   0.6062500000000000    0.4000000000000000    0.5625000000000000 Mg
   0.6062500000000000    0.9000000000000000    0.5625000000000000 Mg
   0.2687500000000000    0.0625000000000000    0.5875000000000000 Mg
   0.2687500000000000    0.5625000000000000    0.5875000000000000 Mg
   0.7687500000000000    0.0625000000000000    0.5875000000000000 Mg
   0.7687500000000000    0.5625000000000000    0.5875000000000000 Mg
   0.2562500000000000    0.0500000000000000    0.6625000000000000 Mg
   0.2562500000000000    0.5500000000000000    0.6625000000000000 Mg
   0.7562500000000000    0.0500000000000000    0.6625000000000000 Mg
   0.7562500000000000    0.5500000000000000    0.6625000000000000 Mg
   0.4187500000000000    0.2125000000000000    0.6875000000000000 Mg
   0.4187500000000000    0.7125000000000000    0.6875000000000000 Mg
   0.9187500000000000    0.2125000000000000    0.6875000000000000 Mg
   0.9187500000000000    0.7125000000000000    0.6875000000000000 Mg
   0.4062500000000000    0.2000000000000000    0.7625000000000000 Mg
   0.4062500000000000    0.7000000000000000    0.7625000000000000 Mg
   0.9062500000000000    0.2000000000000000    0.7625000000000000 Mg
   0.9062500000000000    0.7000000000000000    0.7625000000000000 Mg
   0.0687500000000000    0.3625000000000000    0.7875000000000000 Mg
   0.0687500000000000    0.8625000000000000    0.7875000000000000 Mg
   0.5687500000000000    0.3625000000000000    0.7875000000000000 Mg
   0.5687500000000000    0.8625000000000000    0.7875000000000000 Mg
   0.4875000000000000    0.2812500000000000    0.2750000000000000 Zn
   0.4875000000000000    0.7812500000000000    0.2750000000000000 Zn
   0.9875000000000000    0.2812500000000000    0.2750000000000000 Zn
   0.9875000000000000    0.7812500000000000    0.2750000000000000 Zn
   0.1375000000000000    0.4312500000000000    0.3750000000000000 Zn
   0.1375000000000000    0.9312500000000000    0.3750000000000000 Zn
   0.6375000000000000    0.4312500000000000    0.3750000000000000 Zn
   0.6375000000000000    0.9312500000000000    0.3750000000000000 Zn
   0.3125000000000000    0.3562500000000000    0.3250000000000000 Zn
   0.3125000000000000    0.8562500000000000    0.3250000000000000 Zn
   0.8125000000000000    0.3562500000000000    0.3250000000000000 Zn
   0.8125000000000000    0.8562500000000000    0.3250000000000000 Zn
   0.0625000000000000    0.3562500000000000    0.3250000000000000 Zn
   0.0625000000000000    0.8562500000000000    0.3250000000000000 Zn
   0.5625000000000000    0.3562500000000000    0.3250000000000000 Zn
   0.5625000000000000    0.8562500000000000    0.3250000000000000 Zn
   0.0625000000000000    0.1062500000000000    0.3250000000000000 Zn
   0.0625000000000000    0.6062500000000000    0.3250000000000000 Zn
   0.5625000000000000    0.1062500000000000    0.3250000000000000 Zn
   0.5625000000000000    0.6062500000000000    0.3250000000000000 Zn
   0.2875000000000000    0.0812500000000000    0.4750000000000000 Zn
   0.2875000000000000    0.5812500000000000    0.4750000000000000 Zn
   0.7875000000000000    0.0812500000000000    0.4750000000000000 Zn
   0.7875000000000000    0.5812500000000000    0.4750000000000000 Zn
   0.4625000000000000    0.0062500000000000    0.4250000000000000 Zn
   0.4625000000000000    0.5062500000000000    0.4250000000000000 Zn
   0.9625000000000000    0.0062500000000000    0.4250000000000000 Zn
   0.9625000000000000    0.5062500000000000    0.4250000000000000 Zn
   0.2125000000000000    0.0062500000000000    0.4250000000000000 Zn
   0.2125000000000000    0.5062500000000000    0.4250000000000000 Zn
   0.7125000000000000    0.0062500000000000    0.4250000000000000 Zn
   0.7125000000000000    0.5062500000000000    0.4250000000000000 Zn
   0.2125000000000000    0.2562500000000000    0.4250000000000000 Zn
   0.2125000000000000    0.7562500000000000    0.4250000000000000 Zn
   0.7125000000000000    0.2562500000000000    0.4250000000000000 Zn
   0.7125000000000000    0.7562500000000000    0.4250000000000000 Zn
   0.4375000000000000    0.2312500000000000    0.5750000000000000 Zn
   0.4375000000000000    0.7312500000000000    0.5750000000000000 Zn
   0.9375000000000000    0.2312500000000000    0.5750000000000000 Zn
   0.9375000000000000    0.7312500000000000    0.5750000000000000 Zn
   0.1125000000000000    0.1562500000000000    0.5250000000000000 Zn
   0.1125000000000000    0.6562500000000000    0.5250000000000000 Zn
   0.6125000000000000    0.1562500000000000    0.5250000000000000 Zn
   0.6125000000000000    0.6562500000000000    0.5250000000000000 Zn
   0.3625000000000000    0.1562500000000000    0.5250000000000000 Zn
   0.3625000000000000    0.6562500000000000    0.5250000000000000 Zn
   0.8625000000000000    0.1562500000000000    0.5250000000000000 Zn
   0.8625000000000000    0.6562500000000000    0.5250000000000000 Zn
   0.3625000000000000    0.4062500000000000    0.5250000000000000 Zn
   0.3625000000000000    0.9062500000000000    0.5250000000000000 Zn
   0.8625000000000000    0.4062500000000000    0.5250000000000000 Zn
   0.8625000000000000    0.9062500000000000    0.5250000000000000 Zn
   0.0875000000000000    0.3812500000000000    0.6750000000000000 Zn
   0.0875000000000000    0.8812500000000000    0.6750000000000000 Zn
   0.5875000000000000    0.3812500000000000    0.6750000000000000 Zn
   0.5875000000000000    0.8812500000000000    0.6750000000000000 Zn
   0.2625000000000000    0.3062500000000000    0.6250000000000000 Zn
   0.2625000000000000    0.8062500000000000    0.6250000000000000 Zn
   0.7625000000000000    0.3062500000000000    0.6250000000000000 Zn
   0.7625000000000000    0.8062500000000000    0.6250000000000000 Zn
   0.0125000000000000    0.3062500000000000    0.6250000000000000 Zn
   0.0125000000000000    0.8062500000000000    0.6250000000000000 Zn
   0.5125000000000000    0.3062500000000000    0.6250000000000000 Zn
   0.5125000000000000    0.8062500000000000    0.6250000000000000 Zn
   0.0125000000000000    0.0562500000000000    0.6250000000000000 Zn
   0.0125000000000000    0.5562500000000000    0.6250000000000000 Zn
   0.5125000000000000    0.0562500000000000    0.6250000000000000 Zn
   0.5125000000000000    0.5562500000000000    0.6250000000000000 Zn
   0.2375000000000000    0.0312500000000000    0.7750000000000000 Zn
   0.2375000000000000    0.5312500000000000    0.7750000000000000 Zn
   0.7375000000000000    0.0312500000000000    0.7750000000000000 Zn
   0.7375000000000000    0.5312500000000000    0.7750000000000000 Zn
   0.4125000000000000    0.4562500000000000    0.7250000000000000 Zn
   0.4125000000000000    0.9562500000000000    0.7250000000000000 Zn
   0.9125000000000000    0.4562500000000000    0.7250000000000000 Zn
   0.9125000000000000    0.9562500000000000    0.7250000000000000 Zn
   0.1625000000000000    0.4562500000000000    0.7250000000000000 Zn
   0.1625000000000000    0.9562500000000000    0.7250000000000000 Zn
   0.6625000000000000    0.4562500000000000    0.7250000000000000 Zn
   0.6625000000000000    0.9562500000000000    0.7250000000000000 Zn
   0.1625000000000000    0.2062500000000000    0.7250000000000000 Zn
   0.1625000000000000    0.7062500000000000    0.7250000000000000 Zn
   0.6625000000000000    0.2062500000000000    0.7250000000000000 Zn
   0.6625000000000000    0.7062500000000000    0.7250000000000000 Zn