Nd20 Mg60 H1
1.0
  10.4698100000000007    0.0000000000000000    0.0000000000000000
   0.0000000000000000    7.4032730000000004    0.0000000000000000
   0.0000000000000000    0.0000000000000000   41.8792380000000009
Nd Mg
20 60
direct
   0.3750000000000000    0.0000000000000000    0.2812500000000000 Nd
   0.8750000000000000    0.0000000000000000    0.2812500000000000 Nd
   0.1250000000000000    0.5000000000000000    0.2187500000000000 Nd
   0.6250000000000000    0.5000000000000000    0.2187500000000000 Nd
   0.3750000000000000    0.0000000000000000    0.4062500000000000 Nd
   0.8750000000000000    0.0000000000000000    0.4062500000000000 Nd
   0.1250000000000000    0.5000000000000000    0.3437500000000000 Nd
   0.6250000000000000    0.5000000000000000    0.3437500000000000 Nd
   0.3750000000000000    0.0000000000000000    0.5312500000000000 Nd
   0.8750000000000000    0.0000000000000000    0.5312500000000000 Nd
   0.1250000000000000    0.5000000000000000    0.4687500000000000 Nd
   0.6250000000000000    0.5000000000000000    0.4687500000000000 Nd
   0.3750000000000000    0.0000000000000000    0.6562500000000000 Nd
   0.8750000000000000    0.0000000000000000    0.6562500000000000 Nd
   0.1250000000000000    0.5000000000000000    0.5937500000000000 Nd
   0.6250000000000000    0.5000000000000000    0.5937500000000000 Nd
   0.3750000000000000    0.0000000000000000    0.7812500000000000 Nd
   0.8750000000000000    0.0000000000000000    0.7812500000000000 Nd
   0.1250000000000000    0.5000000000000000    0.7187500000000000 Nd
   0.6250000000000000    0.5000000000000000    0.7187500000000000 Nd
   0.3750000000000000    0.2500000000000000    0.2187500000000000 Mg
   0.8750000000000000    0.2500000000000000    0.2187500000000000 Mg
   0.1250000000000000    0.0000000000000000    0.2187500000000000 Mg
   0.6250000000000000    0.0000000000000000    0.2187500000000000 Mg
   0.1250000000000000    0.2500000000000000    0.2812500000000000 Mg
   0.6250000000000000    0.2500000000000000    0.2812500000000000 Mg
   0.1250000000000000    0.7500000000000000    0.2812500000000000 Mg
   0.6250000000000000    0.7500000000000000    0.2812500000000000 Mg
   0.3750000000000000    0.5000000000000000    0.2812500000000000 Mg
   0.8750000000000000    0.5000000000000000    0.2812500000000000 Mg
   0.3750000000000000    0.7500000000000000    0.2187500000000000 Mg
   0.8750000000000000    0.7500000000000000    0.2187500000000000 Mg
   0.3750000000000000    0.2500000000000000    0.3437500000000000 Mg
   0.8750000000000000    0.2500000000000000    0.3437500000000000 Mg
   0.1250000000000000    0.0000000000000000    0.3437500000000000 Mg
   0.6250000000000000    0.0000000000000000    0.3437500000000000 Mg
   0.1250000000000000    0.2500000000000000    0.4062500000000000 Mg
   0.6250000000000000    0.2500000000000000    0.4062500000000000 Mg
   0.1250000000000000    0.7500000000000000    0.4062500000000000 Mg
   0.6250000000000000    0.7500000000000000    0.4062500000000000 Mg
   0.3750000000000000    0.5000000000000000    0.4062500000000000 Mg
   0.8750000000000000    0.5000000000000000    0.4062500000000000 Mg
   0.3750000000000000    0.7500000000000000    0.3437500000000000 Mg
   0.8750000000000000    0.7500000000000000    0.3437500000000000 Mg
   0.3750000000000000    0.2500000000000000    0.4687500000000000 Mg
   0.8750000000000000    0.2500000000000000    0.4687500000000000 Mg
   0.1250000000000000    0.0000000000000000    0.4687500000000000 Mg
   0.6250000000000000    0.0000000000000000    0.4687500000000000 Mg
   0.1250000000000000    0.2500000000000000    0.5312500000000000 Mg
   0.6250000000000000    0.2500000000000000    0.5312500000000000 Mg
   0.1250000000000000    0.7500000000000000    0.5312500000000000 Mg
   0.6250000000000000    0.7500000000000000    0.5312500000000000 Mg
   0.3750000000000000    0.5000000000000000    0.5312500000000000 Mg
   0.8750000000000000    0.5000000000000000    0.5312500000000000 Mg
   0.3750000000000000    0.7500000000000000    0.4687500000000000 Mg
   0.8750000000000000    0.7500000000000000    0.4687500000000000 Mg
   0.3750000000000000    0.2500000000000000    0.5937500000000000 Mg
   0.8750000000000000    0.2500000000000000    0.5937500000000000 Mg
   0.1250000000000000    0.0000000000000000    0.5937500000000000 Mg
   0.6250000000000000    0.0000000000000000    0.5937500000000000 Mg
   0.1250000000000000    0.2500000000000000    0.6562500000000000 Mg
   0.6250000000000000    0.2500000000000000    0.6562500000000000 Mg
   0.1250000000000000    0.7500000000000000    0.6562500000000000 Mg
   0.6250000000000000    0.7500000000000000    0.6562500000000000 Mg
   0.3750000000000000    0.5000000000000000    0.6562500000000000 Mg
   0.8750000000000000    0.5000000000000000    0.6562500000000000 Mg
   0.3750000000000000    0.7500000000000000    0.5937500000000000 Mg
   0.8750000000000000    0.7500000000000000    0.5937500000000000 Mg
   0.3750000000000000    0.2500000000000000    0.7187500000000000 Mg
   0.8750000000000000    0.2500000000000000    0.7187500000000000 Mg
   0.1250000000000000    0.0000000000000000    0.7187500000000000 Mg
   0.6250000000000000    0.0000000000000000    0.7187500000000000 Mg
   0.1250000000000000    0.2500000000000000    0.7812500000000000 Mg
   0.6250000000000000    0.2500000000000000    0.7812500000000000 Mg
   0.1250000000000000    0.7500000000000000    0.7812500000000000 Mg
   0.6250000000000000    0.7500000000000000    0.7812500000000000 Mg
   0.3750000000000000    0.5000000000000000    0.7812500000000000 Mg
   0.8750000000000000    0.5000000000000000    0.7812500000000000 Mg
   0.3750000000000000    0.7500000000000000    0.7187500000000000 Mg
   0.8750000000000000    0.7500000000000000    0.7187500000000000 Mg