Y30 Mg144                               
   1.00000000000000     
    11.2774819999999991    0.0000000000000000    0.0000000000000000
     0.0000000000000000   11.2774819999999991    0.0000000000000000
     0.0000000000000000    0.0000000000000000   56.3874100000000027
   Y    Mg
    30   144
Selective dynamics
Direct
  0.8154033670760505  0.1845966329239496  0.2380696705056484   T   T   T
  0.1880600000000001  0.1880600000000001  0.3606639999999999   F   F   F
  0.1845966329239496  0.8154033670760505  0.2380696705056484   T   T   T
  0.3106354168770302  0.3106354168770302  0.2584165932012299   T   T   T
  0.0000000000000000  0.0000000000000000  0.3982760000000027   F   F   F
  0.3119399999999999  0.6880600000000001  0.3358879999999971   F   F   F
  0.6893645831229698  0.6893645831229698  0.2584165932012299   T   T   T
  0.6880600000000001  0.3119399999999999  0.3358879999999971   F   F   F
  0.8119399999999999  0.8119399999999999  0.3606639999999999   F   F   F
  0.5000000000000000  0.5000000000000000  0.2982760000000013   F   F   F
  0.8119399999999999  0.1880600000000001  0.4358879999999985   F   F   F
  0.1880600000000001  0.1880600000000001  0.5606640000000027   F   F   F
  0.1880600000000001  0.8119399999999999  0.4358879999999985   F   F   F
  0.3119399999999999  0.3119399999999999  0.4606640000000013   F   F   F
  0.0000000000000000  0.0000000000000000  0.5982759999999985   F   F   F
  0.3119399999999999  0.6880600000000001  0.5358879999999999   F   F   F
  0.6880600000000001  0.6880600000000001  0.4606640000000013   F   F   F
  0.6880600000000001  0.3119399999999999  0.5358879999999999   F   F   F
  0.8119399999999999  0.8119399999999999  0.5606640000000027   F   F   F
  0.5000000000000000  0.5000000000000000  0.4982759999999971   F   F   F
  0.8119399999999999  0.1880600000000001  0.6358880000000013   F   F   F
  0.1856128345866933  0.1856128345866933  0.7598080665047243   T   T   T
  0.1880600000000001  0.8119399999999999  0.6358880000000013   F   F   F
  0.3119399999999999  0.3119399999999999  0.6606639999999970   F   F   F
  0.0000000000000000 -0.0000000000000000  0.7947276707387650   T   T   T
  0.3121958736887145  0.6878041263112854  0.7373515354811936   T   T   T
  0.6880600000000001  0.6880600000000001  0.6606639999999970   F   F   F
  0.6878041263112854  0.3121958736887145  0.7373515354811936   T   T   T
  0.8143871654133066  0.8143871654133066  0.7598080665047243   T   T   T
  0.5000000000000000  0.5000000000000000  0.6982759999999999   F   F   F
  0.7768401082651758  0.4115182792095038  0.2797386411415078   T   T   T
  0.0902961367425826  0.0902961367425826  0.2549346057882616   T   T   T
  0.0833209839348804  0.2848699846745631  0.2177225671975787   T   T   T
  0.9166790160651195  0.7151300153254367  0.2177225671975787   T   T   T
  0.9100239999999999  0.0899760000000001  0.3421069999999986   F   F   F
  0.0302470354420237  0.3560433804305493  0.2710467735791592   T   T   T
  0.4648700812541708  0.8604937637447554  0.2282419842261584   T   T   T
  0.4680589999999967  0.1438380000000024  0.3695080000000033   F   F   F
  0.8604937637447554  0.4648710812541683  0.2282419842261584   T   T   T
  0.1395062362552447  0.5351289187458316  0.2282419842261584   T   T   T
  0.1438380000000024  0.1438380000000024  0.3046640000000025   F   F   F
  0.8547607787556960  0.1452392212443039  0.2927266540147682   T   T   T
  0.1452392212443039  0.8547607787556960  0.2927266540147682   T   T   T
  0.1438380000000024  0.4680589999999967  0.3695080000000033   F   F   F
  0.3560433804305493  0.0302470354420237  0.2710467735791592   T   T   T
  0.3635287693331885  0.3635287693331885  0.2063262649579953   T   T   T
  0.5351289187458316  0.1395062362552447  0.2282419842261584   T   T   T
  0.2848699846745631  0.0833209839348804  0.2177225671975787   T   T   T
  0.7191559999999981  0.0899760000000001  0.3802809999999965   F   F   F
  0.7151300153254367  0.9166790160651195  0.2177225671975787   T   T   T
  0.0899760000000001  0.7191559999999981  0.3802809999999965   F   F   F
  0.4115182792095038  0.7768401082651758  0.2797386411415078   T   T   T
  0.4100239999999999  0.4100239999999999  0.3544449999999983   F   F   F
  0.0899760000000001  0.9100239999999999  0.3421069999999986   F   F   F
  0.2808440000000019  0.9100239999999999  0.3802809999999965   F   F   F
  0.5899760000000001  0.5899760000000001  0.3544449999999983   F   F   F
  0.5899760000000001  0.7808440000000019  0.3162710000000004   F   F   F
  0.4100239999999999  0.2191559999999981  0.3162710000000004   F   F   F
  0.4078217357025055  0.5921782642974942  0.2386995556246085   T   T   T
  0.5319410000000033  0.8561610000000002  0.3695080000000033   F   F   F
  0.9680589999999967  0.3561610000000002  0.3270440000000008   F   F   F
  0.9697529645579764  0.6439566195694506  0.2710467735791592   T   T   T
  0.3561610000000002  0.9680579999999992  0.3270440000000008   F   F   F
  0.6438380000000024  0.0319410000000033  0.3270440000000008   F   F   F
  0.6364712306668114  0.6364722306668089  0.2063262649579953   T   T   T
  0.3561610000000002  0.6438380000000024  0.3918880000000016   F   F   F
  0.6438380000000024  0.3561610000000002  0.3918880000000016   F   F   F
  0.6439566195694506  0.9697519645579790  0.2710467735791592   T   T   T
  0.8561619999999976  0.5319410000000033  0.3695080000000033   F   F   F
  0.8561619999999976  0.8561610000000002  0.3046640000000025   F   F   F
  0.0319410000000033  0.6438389999999998  0.3270440000000008   F   F   F
  0.7808440000000019  0.5899760000000001  0.3162710000000004   F   F   F
  0.2231598917348242  0.5884817207904961  0.2797386411415078   T   T   T
  0.2191559999999981  0.4100239999999999  0.3162710000000004   F   F   F
  0.5884817207904961  0.2231598917348242  0.2797386411415078   T   T   T
  0.9100239999999999  0.2808440000000019  0.3802809999999965   F   F   F
  0.9097038632574173  0.9097038632574173  0.2549346057882616   T   T   T
  0.5921782642974942  0.4078217357025055  0.2386995556246085   T   T   T
  0.7808440000000019  0.4100239999999999  0.4802809999999980   F   F   F
  0.0899760000000001  0.0899760000000001  0.4544449999999998   F   F   F
  0.0899760000000001  0.2808440000000019  0.4162710000000018   F   F   F
  0.9100239999999999  0.7191559999999981  0.4162710000000018   F   F   F
  0.9100239999999999  0.0899760000000001  0.5421070000000014   F   F   F
  0.0319410000000033  0.3561610000000002  0.4695079999999976   F   F   F
  0.4680579999999992  0.8561610000000002  0.4270440000000022   F   F   F
  0.4680589999999967  0.1438380000000024  0.5695079999999990   F   F   F
  0.8561619999999976  0.4680589999999967  0.4270440000000022   F   F   F
  0.1438380000000024  0.5319410000000033  0.4270440000000022   F   F   F
  0.1438380000000024  0.1438380000000024  0.5046639999999982   F   F   F
  0.8561619999999976  0.1438380000000024  0.4918880000000030   F   F   F
  0.1438380000000024  0.8561619999999976  0.4918880000000030   F   F   F
  0.1438380000000024  0.4680579999999992  0.5695079999999990   F   F   F
  0.3561619999999976  0.0319410000000033  0.4695079999999976   F   F   F
  0.3561619999999976  0.3561610000000002  0.4046639999999968   F   F   F
  0.5319410000000033  0.1438380000000024  0.4270440000000022   F   F   F
  0.2808440000000019  0.0899760000000001  0.4162710000000018   F   F   F
  0.7191559999999981  0.0899760000000001  0.5802809999999994   F   F   F
  0.7191559999999981  0.9100239999999999  0.4162710000000018   F   F   F
  0.0899760000000001  0.7191559999999981  0.5802809999999994   F   F   F
  0.4100239999999999  0.7808440000000019  0.4802809999999980   F   F   F
  0.4100239999999999  0.4100239999999999  0.5544450000000012   F   F   F
  0.0899760000000001  0.9100239999999999  0.5421070000000014   F   F   F
  0.2808440000000019  0.9100239999999999  0.5802809999999994   F   F   F
  0.5899760000000001  0.5899760000000001  0.5544450000000012   F   F   F
  0.5899760000000001  0.7808440000000019  0.5162710000000033   F   F   F
  0.4100239999999999  0.2191559999999981  0.5162710000000033   F   F   F
  0.4100239999999999  0.5899760000000001  0.4421070000000000   F   F   F
  0.5319410000000033  0.8561619999999976  0.5695079999999990   F   F   F
  0.9680589999999967  0.3561610000000002  0.5270439999999965   F   F   F
  0.9680589999999967  0.6438380000000024  0.4695079999999976   F   F   F
  0.3561610000000002  0.9680579999999992  0.5270439999999965   F   F   F
  0.6438380000000024  0.0319410000000033  0.5270439999999965   F   F   F
  0.6438380000000024  0.6438389999999998  0.4046639999999968   F   F   F
  0.3561610000000002  0.6438380000000024  0.5918879999999973   F   F   F
  0.6438380000000024  0.3561610000000002  0.5918879999999973   F   F   F
  0.6438380000000024  0.9680579999999992  0.4695079999999976   F   F   F
  0.8561619999999976  0.5319410000000033  0.5695079999999990   F   F   F
  0.8561619999999976  0.8561619999999976  0.5046639999999982   F   F   F
  0.0319410000000033  0.6438380000000024  0.5270439999999965   F   F   F
  0.7808440000000019  0.5899760000000001  0.5162710000000033   F   F   F
  0.2191559999999981  0.5899760000000001  0.4802809999999980   F   F   F
  0.2191559999999981  0.4100239999999999  0.5162710000000033   F   F   F
  0.5899760000000001  0.2191559999999981  0.4802809999999980   F   F   F
  0.9100239999999999  0.2808440000000019  0.5802809999999994   F   F   F
  0.9100239999999999  0.9100239999999999  0.4544449999999998   F   F   F
  0.5899760000000001  0.4100239999999999  0.4421070000000000   F   F   F
  0.7808440000000019  0.4100239999999999  0.6802810000000008   F   F   F
  0.0899760000000001  0.0899760000000001  0.6544450000000026   F   F   F
  0.0899760000000001  0.2808440000000019  0.6162709999999976   F   F   F
  0.9100239999999999  0.7191559999999981  0.6162709999999976   F   F   F
  0.9106723271127897  0.0893276728872103  0.7421512637436063   T   T   T
  0.0319410000000033  0.3561610000000002  0.6695080000000004   F   F   F
  0.4680579999999992  0.8561619999999976  0.6270439999999979   F   F   F
  0.4735603077898061  0.1390391895381595  0.7675442309527269   T   T   T
  0.8561619999999976  0.4680589999999967  0.6270439999999979   F   F   F
  0.1438380000000024  0.5319410000000033  0.6270439999999979   F   F   F
  0.1438380000000024  0.1438380000000024  0.7046640000000011   F   F   F
  0.8561619999999976  0.1438380000000024  0.6918879999999987   F   F   F
  0.1438380000000024  0.8561619999999976  0.6918879999999987   F   F   F
  0.1390391895381595  0.4735593077898086  0.7675442309527269   T   T   T
  0.3561619999999976  0.0319410000000033  0.6695080000000004   F   F   F
  0.3561619999999976  0.3561610000000002  0.6046639999999996   F   F   F
  0.5319410000000033  0.1438380000000024  0.6270439999999979   F   F   F
  0.2808440000000019  0.0899760000000001  0.6162709999999976   F   F   F
  0.7215806873693313  0.0758748479999124  0.7805845565730944   T   T   T
  0.7191559999999981  0.9100239999999999  0.6162709999999976   F   F   F
  0.0758748479999124  0.7215806873693313  0.7805845565730944   T   T   T
  0.4100239999999999  0.7808440000000019  0.6802810000000008   F   F   F
  0.4084231471819152  0.4084231471819152  0.7578137307347323   T   T   T
  0.0893276728872103  0.9106723271127897  0.7421512637436063   T   T   T
  0.2784193126306689  0.9241251520000878  0.7805845565730944   T   T   T
  0.5915768528180848  0.5915768528180848  0.7578137307347323   T   T   T
  0.5896011303527183  0.7776336236033884  0.7165804771035141   T   T   T
  0.4103988696472817  0.2223663763966116  0.7165804771035141   T   T   T
  0.4100239999999999  0.5899760000000001  0.6421070000000029   F   F   F
  0.5264396922101942  0.8609598104618431  0.7675442309527269   T   T   T
  0.9689138767171950  0.3549031879283241  0.7258051325009293   T   T   T
  0.9680589999999967  0.6438380000000024  0.6695080000000004   F   F   F
  0.3549031879283241  0.9689128767171975  0.7258051325009293   T   T   T
  0.6450958120716784  0.0310861232828052  0.7258051325009293   T   T   T
  0.6438380000000024  0.6438389999999998  0.6046639999999996   F   F   F
  0.3578177637116343  0.6421812362883683  0.7899668457088121   T   T   T
  0.6421812362883683  0.3578177637116343  0.7899668457088121   T   T   T
  0.6438380000000024  0.9680579999999992  0.6695080000000004   F   F   F
  0.8609608104618406  0.5264396922101942  0.7675442309527269   T   T   T
  0.8561619999999976  0.8561610000000002  0.7046640000000011   F   F   F
  0.0310861232828052  0.6450968120716759  0.7258051325009293   T   T   T
  0.7776336236033884  0.5896011303527183  0.7165804771035141   T   T   T
  0.2191559999999981  0.5899760000000001  0.6802810000000008   F   F   F
  0.2223663763966116  0.4103988696472817  0.7165804771035141   T   T   T
  0.5899760000000001  0.2191559999999981  0.6802810000000008   F   F   F
  0.9241251520000878  0.2784193126306689  0.7805845565730944   T   T   T
  0.9100239999999999  0.9100239999999999  0.6544450000000026   F   F   F
  0.5899760000000001  0.4100239999999999  0.6421070000000029   F   F   F
 
  0.00000000E+00  0.00000000E+00  0.00000000E+00
  0.00000000E+00  0.00000000E+00  0.00000000E+00
  0.00000000E+00  0.00000000E+00  0.00000000E+00
  0.00000000E+00  0.00000000E+00  0.00000000E+00
  0.00000000E+00  0.00000000E+00  0.00000000E+00
  0.00000000E+00  0.00000000E+00  0.00000000E+00
  0.00000000E+00  0.00000000E+00  0.00000000E+00
  0.00000000E+00  0.00000000E+00  0.00000000E+00
  0.00000000E+00  0.00000000E+00  0.00000000E+00
  0.00000000E+00  0.00000000E+00  0.00000000E+00
  0.00000000E+00  0.00000000E+00  0.00000000E+00
  0.00000000E+00  0.00000000E+00  0.00000000E+00
  0.00000000E+00  0.00000000E+00  0.00000000E+00
  0.00000000E+00  0.00000000E+00  0.00000000E+00
  0.00000000E+00  0.00000000E+00  0.00000000E+00
  0.00000000E+00  0.00000000E+00  0.00000000E+00
  0.00000000E+00  0.00000000E+00  0.00000000E+00
  0.00000000E+00  0.00000000E+00  0.00000000E+00
  0.00000000E+00  0.00000000E+00  0.00000000E+00
  0.00000000E+00  0.00000000E+00  0.00000000E+00
  0.00000000E+00  0.00000000E+00  0.00000000E+00
  0.00000000E+00  0.00000000E+00  0.00000000E+00
  0.00000000E+00  0.00000000E+00  0.00000000E+00
  0.00000000E+00  0.00000000E+00  0.00000000E+00
  0.00000000E+00  0.00000000E+00  0.00000000E+00
  0.00000000E+00  0.00000000E+00  0.00000000E+00
  0.00000000E+00  0.00000000E+00  0.00000000E+00
  0.00000000E+00  0.00000000E+00  0.00000000E+00
  0.00000000E+00  0.00000000E+00  0.00000000E+00
  0.00000000E+00  0.00000000E+00  0.00000000E+00
  0.00000000E+00  0.00000000E+00  0.00000000E+00
  0.00000000E+00  0.00000000E+00  0.00000000E+00
  0.00000000E+00  0.00000000E+00  0.00000000E+00
  0.00000000E+00  0.00000000E+00  0.00000000E+00
  0.00000000E+00  0.00000000E+00  0.00000000E+00
  0.00000000E+00  0.00000000E+00  0.00000000E+00
  0.00000000E+00  0.00000000E+00  0.00000000E+00
  0.00000000E+00  0.00000000E+00  0.00000000E+00
  0.00000000E+00  0.00000000E+00  0.00000000E+00
  0.00000000E+00  0.00000000E+00  0.00000000E+00
  0.00000000E+00  0.00000000E+00  0.00000000E+00
  0.00000000E+00  0.00000000E+00  0.00000000E+00
  0.00000000E+00  0.00000000E+00  0.00000000E+00
  0.00000000E+00  0.00000000E+00  0.00000000E+00
  0.00000000E+00  0.00000000E+00  0.00000000E+00
  0.00000000E+00  0.00000000E+00  0.00000000E+00
  0.00000000E+00  0.00000000E+00  0.00000000E+00
  0.00000000E+00  0.00000000E+00  0.00000000E+00
  0.00000000E+00  0.00000000E+00  0.00000000E+00
  0.00000000E+00  0.00000000E+00  0.00000000E+00
  0.00000000E+00  0.00000000E+00  0.00000000E+00
  0.00000000E+00  0.00000000E+00  0.00000000E+00
  0.00000000E+00  0.00000000E+00  0.00000000E+00
  0.00000000E+00  0.00000000E+00  0.00000000E+00
  0.00000000E+00  0.00000000E+00  0.00000000E+00
  0.00000000E+00  0.00000000E+00  0.00000000E+00
  0.00000000E+00  0.00000000E+00  0.00000000E+00
  0.00000000E+00  0.00000000E+00  0.00000000E+00
  0.00000000E+00  0.00000000E+00  0.00000000E+00
  0.00000000E+00  0.00000000E+00  0.00000000E+00
  0.00000000E+00  0.00000000E+00  0.00000000E+00
  0.00000000E+00  0.00000000E+00  0.00000000E+00
  0.00000000E+00  0.00000000E+00  0.00000000E+00
  0.00000000E+00  0.00000000E+00  0.00000000E+00
  0.00000000E+00  0.00000000E+00  0.00000000E+00
  0.00000000E+00  0.00000000E+00  0.00000000E+00
  0.00000000E+00  0.00000000E+00  0.00000000E+00
  0.00000000E+00  0.00000000E+00  0.00000000E+00
  0.00000000E+00  0.00000000E+00  0.00000000E+00
  0.00000000E+00  0.00000000E+00  0.00000000E+00
  0.00000000E+00  0.00000000E+00  0.00000000E+00
  0.00000000E+00  0.00000000E+00  0.00000000E+00
  0.00000000E+00  0.00000000E+00  0.00000000E+00
  0.00000000E+00  0.00000000E+00  0.00000000E+00
  0.00000000E+00  0.00000000E+00  0.00000000E+00
  0.00000000E+00  0.00000000E+00  0.00000000E+00
  0.00000000E+00  0.00000000E+00  0.00000000E+00
  0.00000000E+00  0.00000000E+00  0.00000000E+00
  0.00000000E+00  0.00000000E+00  0.00000000E+00
  0.00000000E+00  0.00000000E+00  0.00000000E+00
  0.00000000E+00  0.00000000E+00  0.00000000E+00
  0.00000000E+00  0.00000000E+00  0.00000000E+00
  0.00000000E+00  0.00000000E+00  0.00000000E+00
  0.00000000E+00  0.00000000E+00  0.00000000E+00
  0.00000000E+00  0.00000000E+00  0.00000000E+00
  0.00000000E+00  0.00000000E+00  0.00000000E+00
  0.00000000E+00  0.00000000E+00  0.00000000E+00
  0.00000000E+00  0.00000000E+00  0.00000000E+00
  0.00000000E+00  0.00000000E+00  0.00000000E+00
  0.00000000E+00  0.00000000E+00  0.00000000E+00
  0.00000000E+00  0.00000000E+00  0.00000000E+00
  0.00000000E+00  0.00000000E+00  0.00000000E+00
  0.00000000E+00  0.00000000E+00  0.00000000E+00
  0.00000000E+00  0.00000000E+00  0.00000000E+00
  0.00000000E+00  0.00000000E+00  0.00000000E+00
  0.00000000E+00  0.00000000E+00  0.00000000E+00
  0.00000000E+00  0.00000000E+00  0.00000000E+00
  0.00000000E+00  0.00000000E+00  0.00000000E+00
  0.00000000E+00  0.00000000E+00  0.00000000E+00
  0.00000000E+00  0.00000000E+00  0.00000000E+00
  0.00000000E+00  0.00000000E+00  0.00000000E+00
  0.00000000E+00  0.00000000E+00  0.00000000E+00
  0.00000000E+00  0.00000000E+00  0.00000000E+00
  0.00000000E+00  0.00000000E+00  0.00000000E+00
  0.00000000E+00  0.00000000E+00  0.00000000E+00
  0.00000000E+00  0.00000000E+00  0.00000000E+00
  0.00000000E+00  0.00000000E+00  0.00000000E+00
  0.00000000E+00  0.00000000E+00  0.00000000E+00
  0.00000000E+00  0.00000000E+00  0.00000000E+00
  0.00000000E+00  0.00000000E+00  0.00000000E+00
  0.00000000E+00  0.00000000E+00  0.00000000E+00
  0.00000000E+00  0.00000000E+00  0.00000000E+00
  0.00000000E+00  0.00000000E+00  0.00000000E+00
  0.00000000E+00  0.00000000E+00  0.00000000E+00
  0.00000000E+00  0.00000000E+00  0.00000000E+00
  0.00000000E+00  0.00000000E+00  0.00000000E+00
  0.00000000E+00  0.00000000E+00  0.00000000E+00
  0.00000000E+00  0.00000000E+00  0.00000000E+00
  0.00000000E+00  0.00000000E+00  0.00000000E+00
  0.00000000E+00  0.00000000E+00  0.00000000E+00
  0.00000000E+00  0.00000000E+00  0.00000000E+00
  0.00000000E+00  0.00000000E+00  0.00000000E+00
  0.00000000E+00  0.00000000E+00  0.00000000E+00
  0.00000000E+00  0.00000000E+00  0.00000000E+00
  0.00000000E+00  0.00000000E+00  0.00000000E+00
  0.00000000E+00  0.00000000E+00  0.00000000E+00
  0.00000000E+00  0.00000000E+00  0.00000000E+00
  0.00000000E+00  0.00000000E+00  0.00000000E+00
  0.00000000E+00  0.00000000E+00  0.00000000E+00
  0.00000000E+00  0.00000000E+00  0.00000000E+00
  0.00000000E+00  0.00000000E+00  0.00000000E+00
  0.00000000E+00  0.00000000E+00  0.00000000E+00
  0.00000000E+00  0.00000000E+00  0.00000000E+00
  0.00000000E+00  0.00000000E+00  0.00000000E+00
  0.00000000E+00  0.00000000E+00  0.00000000E+00
  0.00000000E+00  0.00000000E+00  0.00000000E+00
  0.00000000E+00  0.00000000E+00  0.00000000E+00
  0.00000000E+00  0.00000000E+00  0.00000000E+00
  0.00000000E+00  0.00000000E+00  0.00000000E+00
  0.00000000E+00  0.00000000E+00  0.00000000E+00
  0.00000000E+00  0.00000000E+00  0.00000000E+00
  0.00000000E+00  0.00000000E+00  0.00000000E+00
  0.00000000E+00  0.00000000E+00  0.00000000E+00
  0.00000000E+00  0.00000000E+00  0.00000000E+00
  0.00000000E+00  0.00000000E+00  0.00000000E+00
  0.00000000E+00  0.00000000E+00  0.00000000E+00
  0.00000000E+00  0.00000000E+00  0.00000000E+00
  0.00000000E+00  0.00000000E+00  0.00000000E+00
  0.00000000E+00  0.00000000E+00  0.00000000E+00
  0.00000000E+00  0.00000000E+00  0.00000000E+00
  0.00000000E+00  0.00000000E+00  0.00000000E+00
  0.00000000E+00  0.00000000E+00  0.00000000E+00
  0.00000000E+00  0.00000000E+00  0.00000000E+00
  0.00000000E+00  0.00000000E+00  0.00000000E+00
  0.00000000E+00  0.00000000E+00  0.00000000E+00
  0.00000000E+00  0.00000000E+00  0.00000000E+00
  0.00000000E+00  0.00000000E+00  0.00000000E+00
  0.00000000E+00  0.00000000E+00  0.00000000E+00
  0.00000000E+00  0.00000000E+00  0.00000000E+00
  0.00000000E+00  0.00000000E+00  0.00000000E+00
  0.00000000E+00  0.00000000E+00  0.00000000E+00
  0.00000000E+00  0.00000000E+00  0.00000000E+00
  0.00000000E+00  0.00000000E+00  0.00000000E+00
  0.00000000E+00  0.00000000E+00  0.00000000E+00
  0.00000000E+00  0.00000000E+00  0.00000000E+00
  0.00000000E+00  0.00000000E+00  0.00000000E+00
  0.00000000E+00  0.00000000E+00  0.00000000E+00
  0.00000000E+00  0.00000000E+00  0.00000000E+00
  0.00000000E+00  0.00000000E+00  0.00000000E+00
  0.00000000E+00  0.00000000E+00  0.00000000E+00
  0.00000000E+00  0.00000000E+00  0.00000000E+00
  0.00000000E+00  0.00000000E+00  0.00000000E+00
  0.00000000E+00  0.00000000E+00  0.00000000E+00
  0.00000000E+00  0.00000000E+00  0.00000000E+00
